6 1
7 1
8 1
9 0
10 2
11 4
12 3
5 14
6 12
7 10
8 14
9 11
10 14
11 10
12 11
5 23
6 21
7 23
8 20
9 24
10 23
11 23
12 23
5 34
6 33
7 34
8 34
9 33
10 33
11 31
12 33
5 42
6 43
7 41
8 44
9 44
10 43
11 44
12 44
5 54
6 52
7 51
8 50
9 51
10 52
11 53
12 52
5 61
6 64
7 62
8 64
9 62
10 64
11 63
12 60
5 74
6 73
7 70
8 70
9 72
10 71
11 73
12 72
5 83
6 83
7 84
8 81
9 84
10 84
11 83
12 81
5 94
6 94
7 91
8 93
